p cnf 20 20
-5 15 -13 0
-4 11 7 0
11 -14 -13 0
2 6 18 0
13 11 -20 0
6 -12 -9 0
1 11 -19 0
-4 -2 -13 0
-16 5 1 0
-1 -11 8 0
-10 -16 8 0
-9 -2 15 0
-20 19 6 0
15 -20 -5 0
-20 -13 9 0
-3 6 -8 0
13 9 14 0
16 -18 -1 0
4 -2 14 0
-17 1 -8 0
